c ind 1 2 3 4 5 6 7 8 9 10 11 12 13 14 15 16 17 18 19 20 21 22 23 24 25 26 27 0
p cnf 169 248               
-1 -4 28 0
-28 31 0
-2 -5 29 0
-29 31 0
-3 -6 30 0
-30 31 0
-31 -67 0
-1 32 0
-4 32 0
1 4 -32 0
-10 32 -35 0
35 -41 0
-2 33 0
-5 33 0
2 5 -33 0
-11 33 -36 0
36 -41 0
-3 34 0
-6 34 0
3 6 -34 0
-12 34 -37 0
37 -41 0
-13 7 -38 0
38 -41 0
-14 8 -39 0
39 -41 0
-15 9 -40 0
40 -41 0
-32 41 -42 0
42 -59 0
-16 32 -43 0
43 -49 0
-17 33 -44 0
44 -49 0
-18 34 -45 0
45 -49 0
-19 7 -46 0
46 -49 0
-20 8 -47 0
47 -49 0
-21 9 -48 0
48 -49 0
-33 49 -50 0
50 -59 0
-22 32 -51 0
51 -57 0
-23 33 -52 0
52 -57 0
-24 34 -53 0
53 -57 0
-25 7 -54 0
54 -57 0
-26 8 -55 0
55 -57 0
-27 9 -56 0
56 -57 0
-34 57 -58 0
58 -59 0
59 -67 0
-10 60 0
-11 60 0
-12 60 0
-13 60 0
-14 60 0
-15 60 0
-60 32 -63 0
63 -66 0
-16 61 0
-17 61 0
-18 61 0
-19 61 0
-20 61 0
-21 61 0
-61 33 -64 0
64 -66 0
-22 62 0
-23 62 0
-24 62 0
-25 62 0
-26 62 0
-27 62 0
-62 34 -65 0
65 -66 0
66 -67 0
-7 8 -68 0
68 -82 0
-7 -8 69 0
7 8 69 0
-8 8 69 0
-13 14 -70 0
-69 70 -71 0
71 -82 0
-13 -14 72 0
13 14 72 0
-14 14 72 0
-69 -72 73 0
-19 20 -74 0
-73 74 -75 0
75 -82 0
-19 -20 76 0
19 20 76 0
-20 20 76 0
-73 -76 77 0
-25 26 -78 0
-77 78 -79 0
79 -82 0
82 -168 0
-8 9 -83 0
83 -97 0
-8 -9 84 0
8 9 84 0
-9 9 84 0
-14 15 -85 0
-84 85 -86 0
86 -97 0
-14 -15 87 0
14 15 87 0
-15 15 87 0
-84 -87 88 0
-20 21 -89 0
-88 89 -90 0
90 -97 0
-20 -21 91 0
20 21 91 0
-21 21 91 0
-88 -91 92 0
-26 27 -93 0
-92 93 -94 0
94 -97 0
97 -168 0
-1 2 -98 0
98 -132 0
-1 -2 99 0
1 2 99 0
-2 2 99 0
-4 5 -100 0
-99 100 -101 0
101 -132 0
-4 -5 102 0
4 5 102 0
-5 5 102 0
-99 -102 103 0
-10 17 -104 0
-103 104 -105 0
105 -132 0
-10 -17 106 0
10 17 106 0
-17 17 106 0
-103 -106 107 0
-11 16 -108 0
-107 108 -109 0
109 -132 0
-11 -16 110 0
11 16 110 0
-16 16 110 0
-107 -110 111 0
-12 18 -112 0
-111 112 -113 0
113 -132 0
-12 -18 114 0
12 18 114 0
-18 18 114 0
-111 -114 115 0
-13 19 -116 0
-115 116 -117 0
117 -132 0
-13 -19 118 0
13 19 118 0
-19 19 118 0
-115 -118 119 0
-14 20 -120 0
-119 120 -121 0
121 -132 0
-14 -20 122 0
14 20 122 0
-20 20 122 0
-119 -122 123 0
-15 21 -124 0
-123 124 -125 0
125 -132 0
-15 -21 126 0
15 21 126 0
-21 21 126 0
-123 -126 127 0
-22 23 -128 0
-127 128 -129 0
129 -132 0
132 -168 0
-2 3 -133 0
133 -167 0
-2 -3 134 0
2 3 134 0
-3 3 134 0
-5 6 -135 0
-134 135 -136 0
136 -167 0
-5 -6 137 0
5 6 137 0
-6 6 137 0
-134 -137 138 0
-11 12 -139 0
-138 139 -140 0
140 -167 0
-11 -12 141 0
11 12 141 0
-12 12 141 0
-138 -141 142 0
-16 22 -143 0
-142 143 -144 0
144 -167 0
-16 -22 145 0
16 22 145 0
-22 22 145 0
-142 -145 146 0
-17 24 -147 0
-146 147 -148 0
148 -167 0
-17 -24 149 0
17 24 149 0
-24 24 149 0
-146 -149 150 0
-18 23 -151 0
-150 151 -152 0
152 -167 0
-18 -23 153 0
18 23 153 0
-23 23 153 0
-150 -153 154 0
-19 25 -155 0
-154 155 -156 0
156 -167 0
-19 -25 157 0
19 25 157 0
-25 25 157 0
-154 -157 158 0
-20 26 -159 0
-158 159 -160 0
160 -167 0
-20 -26 161 0
20 26 161 0
-26 26 161 0
-158 -161 162 0
-21 27 -163 0
-162 163 -164 0
164 -167 0
167 -168 0
67 0
168 0
